data/CVRPLIB/Vrp-Set-XML100/instances/XML100_2212_16.vrp
NAME : XML100_2212_16
COMMENT : Generated by Queiroga, Sadykov, Uchoa, and Vidal (2021)
TYPE : CVRP
DIMENSION : 101
EDGE_WEIGHT_TYPE : EUC_2D
CAPACITY : 5
NODE_COORD_SECTION
1    500  500 
2    636  61  
3    646  737 
4    824  895 
5    637  7   
6    852  628 
7    805  781 
8    787  906 
9    799  949 
10   881  837 
11   790  869 
12   842  814 
13   453  32  
14   861  985 
15   736  214 
16   888  829 
17   896  814 
18   818  743 
19   845  850 
20   998  645 
21   799  808 
22   798  904 
23   923  805 
24   631  56  
25   855  758 
26   753  766 
27   696  706 
28   787  811 
29   953  926 
30   878  665 
31   736  743 
32   633  13  
33   930  801 
34   793  917 
35   854  849 
36   851  783 
37   689  43  
38   592  29  
39   880  727 
40   819  805 
41   768  48  
42   795  811 
43   713  709 
44   639  136 
45   657  202 
46   893  918 
47   647  16  
48   923  863 
49   795  966 
50   694  88  
51   816  775 
52   640  57  
53   718  921 
54   829  767 
55   670  28  
56   724  6   
57   575  546 
58   934  769 
59   694  35  
60   693  726 
61   882  696 
62   805  786 
63   841  797 
64   562  9   
65   762  711 
66   632  43  
67   733  719 
68   900  746 
69   991  883 
70   655  478 
71   879  886 
72   668  62  
73   808  780 
74   977  800 
75   804  727 
76   884  860 
77   597  8   
78   695  44  
79   860  744 
80   969  902 
81   884  748 
82   700  29  
83   935  722 
84   739  63  
85   729  788 
86   846  809 
87   875  806 
88   709  569 
89   666  37  
90   916  636 
91   858  722 
92   725  788 
93   607  61  
94   922  852 
95   879  835 
96   874  818 
97   949  511 
98   884  809 
99   753  793 
100  568  748 
101  834  814 
DEMAND_SECTION
1    0   
2    1   
3    1   
4    1   
5    1   
6    1   
7    1   
8    1   
9    1   
10   1   
11   1   
12   1   
13   1   
14   1   
15   1   
16   1   
17   1   
18   1   
19   1   
20   1   
21   1   
22   1   
23   1   
24   1   
25   1   
26   1   
27   1   
28   1   
29   1   
30   1   
31   1   
32   1   
33   1   
34   1   
35   1   
36   1   
37   1   
38   1   
39   1   
40   1   
41   1   
42   1   
43   1   
44   1   
45   1   
46   1   
47   1   
48   1   
49   1   
50   1   
51   1   
52   1   
53   1   
54   1   
55   1   
56   1   
57   1   
58   1   
59   1   
60   1   
61   1   
62   1   
63   1   
64   1   
65   1   
66   1   
67   1   
68   1   
69   1   
70   1   
71   1   
72   1   
73   1   
74   1   
75   1   
76   1   
77   1   
78   1   
79   1   
80   1   
81   1   
82   1   
83   1   
84   1   
85   1   
86   1   
87   1   
88   1   
89   1   
90   1   
91   1   
92   1   
93   1   
94   1   
95   1   
96   1   
97   1   
98   1   
99   1   
100  1   
101  1   
DEPOT_SECTION
1
-1
EOF
