data/CVRPLIB/Vrp-Set-XML100/solutions/XML100_2212_16.sol
Route #1: 56 26 59 2 99
Route #2: 100 11 85 62 35
Route #3: 44 49 77 36 71
Route #4: 27 41 20 39 61
Route #5: 93 47 75 34 18
Route #6: 88 54 46 4 31
Route #7: 69 87 64 66 42
Route #8: 17 53 50 72 6
Route #9: 57 32 22 16 97
Route #10: 10 3 21 33 7
Route #11: 14 96 19 89 5
Route #12: 58 81 55 40 83
Route #13: 29 60 82 67 80
Route #14: 92 37 76 63 12
Route #15: 43 1 51 65 23
Route #16: 86 15 9 94 95
Route #17: 30 25 98 84 91
Route #18: 52 8 48 13 45
Route #19: 74 24 78 38 90
Route #20: 70 28 79 68 73
Cost 20527
